
n_res = 6;
rcap = [32, 33, 290, 297, 313, 298];
rtype = [1, 1, 2, 2, 2, 2];
n_tasks = 50;
modes =  [{1, 2, 3}, {4, 5, 6}, {7, 8, 9}, {10, 11, 12}, {13, 14, 15}, {16, 17, 18}, {19, 20, 21}, {22, 23, 24}, {25, 26, 27}, {28, 29, 30}, {31, 32, 33}, {34, 35, 36}, {37, 38, 39}, {40, 41, 42}, {43, 44, 45}, {46, 47, 48}, {49, 50, 51}, {52, 53, 54}, {55, 56, 57}, {58, 59, 60}, {61, 62, 63}, {64, 65, 66}, {67, 68, 69}, {70, 71, 72}, {73, 74, 75}, {76, 77, 78}, {79, 80, 81}, {82, 83, 84}, {85, 86, 87}, {88, 89, 90}, {91, 92, 93}, {94, 95, 96}, {97, 98, 99}, {100, 101, 102}, {103, 104, 105}, {106, 107, 108}, {109, 110, 111}, {112, 113, 114}, {115, 116, 117}, {118, 119, 120}, {121, 122, 123}, {124, 125, 126}, {127, 128, 129}, {130, 131, 132}, {133, 134, 135}, {136, 137, 138}, {139, 140, 141}, {142, 143, 144}, {145, 146, 147}, {148, 149, 150}];
succ =  [{48, 47, 44, 43, 29, 28, 17, 11}, {50, 49, 44, 42, 41, 31, 30, 26, 25, 24, 21, 18}, {50, 48, 47, 44, 43, 29, 25, 21, 19, 17}, {49, 46, 45, 42, 29, 28, 24, 18, 14}, {50, 46, 44, 42, 41, 40, 39, 35, 33, 31, 30, 25, 21}, {48, 47, 44, 43, 41, 40, 39, 38, 31, 30, 23, 19}, {47, 46, 44, 43, 42, 41, 39, 31, 16}, {50, 49, 48, 47, 46, 43, 41, 40, 39, 38, 32, 24}, {49, 48, 46, 42, 41, 40, 39, 32, 25, 24}, {45, 44, 43, 42, 36, 28, 17}, {49, 46, 45, 42, 41, 40, 39, 38, 37, 35, 31, 30}, {50, 49, 46, 43, 41, 40, 39, 38, 36, 24}, {42, 33, 17}, {48, 43, 41, 40, 39, 35, 34, 30}, {45, 44, 43, 42, 40, 39, 35, 34}, {45, 40, 38, 36, 24}, {41, 40, 39, 24}, {47, 43, 39, 38, 35, 34}, {42, 36, 24}, {41, 25}, {45, 38, 36, 34}, {37, 35, 30}, {24}, {37, 35, 34}, {38, 37, 36}, {40, 37, 35}, {39, 38, 34}, {38, 34}, {36, 35}, {36}, {34}, {44}, {36}, {}, {}, {}, {}, {}, {}, {}, {}, {}, {}, {}, {}, {}, {}, {}, {}, {}];
n_opt = 150;
dur = [2, 3, 8, 2, 3, 8, 1, 2, 10, 5, 6, 7, 1, 3, 4, 1, 2, 3, 1, 8, 10, 2, 4, 8, 1, 9, 10, 2, 4, 9, 3, 4, 10, 3, 4, 9, 1, 5, 7, 5, 7, 10, 5, 7, 9, 5, 7, 8, 2, 9, 10, 4, 5, 7, 3, 4, 10, 2, 3, 9, 2, 4, 8, 2, 4, 6, 7, 8, 9, 2, 8, 9, 4, 6, 8, 1, 7, 10, 3, 6, 9, 3, 5, 9, 3, 9, 10, 3, 8, 10, 1, 2, 4, 3, 6, 9, 1, 3, 8, 4, 7, 10, 2, 3, 10, 7, 9, 10, 3, 7, 8, 4, 7, 10, 1, 4, 5, 4, 5, 8, 2, 6, 7, 8, 9, 10, 2, 3, 9, 1, 3, 5, 7, 9, 10, 2, 3, 8, 2, 6, 7, 1, 3, 5, 1, 4, 7, 1, 5, 8];
rreq = [|8, 5, 4, 5, 4, 4, 6, 4, 3, 3, 3, 2, 9, 4, 3, 6, 4, 2, 8, 8, 5, 9, 9, 9, 8, 6, 5, 7, 7, 6, 8, 8, 8, 6, 6, 4, 5, 5, 5, 8, 6, 6, 1, 1, 1, 4, 3, 3, 9, 7, 5, 6, 5, 4, 6, 6, 6, 5, 4, 4, 7, 7, 7, 5, 5, 4, 7, 3, 1, 9, 9, 8, 5, 5, 5, 5, 5, 5, 8, 5, 5, 3, 3, 3, 6, 5, 2, 9, 7, 7, 5, 3, 3, 5, 3, 3, 3, 3, 2, 6, 6, 5, 7, 7, 3, 5, 4, 4, 9, 7, 7, 7, 4, 2, 5, 3, 2, 10, 10, 10, 3, 3, 3, 7, 5, 2, 8, 8, 8, 5, 3, 2, 9, 8, 8, 4, 4, 4, 7, 6, 1, 7, 6, 5, 8, 7, 7, 5, 5, 3
 |7, 5, 5, 10, 8, 8, 5, 4, 4, 10, 9, 9, 5, 4, 4, 8, 5, 4, 10, 7, 3, 8, 7, 7, 5, 4, 2, 7, 5, 2, 4, 3, 2, 5, 4, 4, 2, 2, 2, 6, 6, 6, 3, 3, 3, 4, 2, 2, 3, 3, 3, 8, 8, 8, 4, 4, 1, 7, 5, 5, 8, 4, 2, 8, 8, 5, 7, 6, 6, 9, 9, 9, 5, 4, 3, 7, 5, 5, 2, 2, 2, 6, 3, 1, 4, 2, 2, 9, 9, 9, 5, 3, 3, 5, 5, 3, 4, 4, 4, 9, 9, 9, 10, 6, 6, 10, 8, 8, 3, 3, 3, 7, 3, 2, 10, 6, 2, 4, 4, 4, 3, 1, 1, 7, 7, 5, 7, 7, 7, 9, 4, 3, 9, 8, 8, 7, 5, 5, 8, 5, 3, 6, 3, 3, 4, 2, 2, 6, 6, 6
 |6, 3, 2, 6, 5, 4, 9, 8, 6, 10, 9, 9, 1, 1, 1, 4, 3, 2, 5, 5, 5, 7, 4, 4, 8, 8, 4, 7, 6, 3, 7, 3, 2, 3, 2, 2, 6, 3, 1, 8, 7, 7, 3, 3, 3, 6, 4, 2, 9, 7, 3, 5, 4, 4, 3, 3, 2, 5, 4, 3, 8, 8, 7, 9, 8, 6, 10, 8, 5, 6, 6, 4, 6, 4, 4, 4, 4, 4, 7, 3, 3, 6, 4, 3, 3, 3, 2, 6, 4, 3, 8, 7, 6, 7, 7, 7, 7, 5, 5, 9, 8, 7, 3, 3, 3, 7, 4, 3, 9, 6, 4, 8, 7, 7, 9, 5, 4, 4, 3, 3, 4, 3, 2, 6, 6, 5, 8, 7, 7, 8, 6, 3, 6, 5, 4, 4, 4, 4, 9, 8, 8, 6, 6, 5, 7, 5, 4, 6, 6, 5
 |6, 5, 5, 10, 10, 10, 8, 8, 4, 6, 4, 2, 4, 2, 1, 6, 6, 6, 9, 8, 7, 6, 6, 5, 4, 3, 2, 8, 6, 4, 7, 7, 7, 6, 3, 1, 10, 10, 10, 9, 8, 8, 7, 6, 5, 8, 7, 7, 4, 2, 1, 8, 5, 3, 3, 3, 2, 3, 3, 3, 4, 3, 2, 5, 4, 3, 10, 4, 3, 8, 6, 4, 8, 7, 6, 8, 7, 5, 6, 3, 2, 8, 5, 3, 9, 8, 8, 10, 8, 8, 6, 5, 5, 4, 3, 2, 7, 6, 5, 6, 4, 2, 4, 4, 3, 7, 3, 3, 3, 3, 3, 3, 2, 2, 6, 3, 3, 5, 5, 3, 4, 2, 2, 8, 5, 3, 8, 7, 6, 6, 3, 2, 7, 7, 7, 7, 4, 4, 5, 4, 3, 8, 7, 3, 9, 9, 9, 5, 4, 3
 |6, 6, 6, 5, 4, 4, 1, 1, 1, 10, 9, 9, 8, 7, 6, 8, 6, 6, 2, 2, 2, 7, 4, 3, 8, 6, 4, 7, 6, 5, 7, 6, 5, 4, 4, 4, 6, 3, 1, 5, 4, 4, 8, 7, 4, 9, 9, 8, 7, 7, 5, 9, 9, 7, 8, 6, 6, 9, 8, 6, 9, 9, 9, 9, 5, 4, 9, 7, 1, 9, 6, 4, 2, 2, 2, 3, 3, 3, 10, 6, 4, 6, 6, 3, 8, 6, 6, 7, 7, 6, 2, 2, 2, 8, 7, 5, 8, 8, 7, 5, 5, 5, 8, 8, 8, 7, 5, 4, 9, 6, 3, 5, 3, 3, 5, 4, 4, 5, 3, 2, 6, 5, 5, 6, 5, 5, 7, 5, 4, 8, 6, 6, 7, 6, 6, 6, 3, 3, 10, 4, 2, 6, 5, 5, 9, 7, 5, 9, 8, 6
 |1, 1, 1, 9, 8, 6, 9, 6, 5, 7, 6, 6, 8, 8, 7, 9, 8, 7, 8, 6, 4, 7, 6, 4, 10, 8, 8, 7, 7, 6, 7, 6, 6, 7, 6, 5, 7, 7, 4, 4, 4, 3, 4, 2, 2, 6, 5, 5, 6, 5, 4, 5, 5, 4, 7, 5, 4, 2, 1, 1, 6, 5, 5, 1, 1, 1, 6, 6, 3, 7, 5, 2, 10, 7, 2, 3, 3, 2, 5, 4, 3, 10, 6, 6, 4, 3, 2, 10, 9, 8, 5, 4, 4, 8, 5, 2, 2, 1, 1, 8, 7, 6, 6, 5, 3, 8, 5, 1, 8, 4, 3, 5, 5, 3, 9, 9, 8, 8, 7, 7, 10, 10, 10, 10, 7, 5, 8, 5, 2, 5, 4, 4, 7, 7, 7, 5, 4, 3, 7, 5, 5, 2, 2, 2, 8, 8, 8, 5, 5, 3|];